SDVRP instances/custom_instances/p01_8_split0.vrp
NAME:p01_8_split
BEST_KNOWN: 0
COMMENT: 0
DIMENSION: 229
CAPACITY: 160
EDGE_WEIGHT_FORMAT: FUNCTION
EDGE_WEIGHT_TYPE: EXACT_2D
NODE_COORD_SECTION
1 0.00000 0.00000
2 0 -9
3 0 -9
4 0 -9
5 0 -9
6 0 -9
7 0 -9
8 -47 7
9 -47 7
10 -47 7
11 -47 7
12 -47 7
13 -21 -12
14 -21 -12
15 -21 -12
16 -21 -12
17 5 14
18 5 14
19 5 14
20 5 14
21 5 14
22 5 14
23 27 42
24 27 42
25 27 42
26 27 42
27 19 -27
28 19 -27
29 19 -27
30 19 -27
31 19 -27
32 36 -26
33 36 -26
34 36 -26
35 36 -26
36 4 10
37 4 10
38 -48 -40
39 -48 -40
40 -48 -40
41 -48 -40
42 -48 -40
43 -40 39
44 -40 39
45 -40 39
46 -40 39
47 42 -41
48 42 -41
49 42 -41
50 42 -41
51 19 4
52 19 4
53 19 4
54 -43 1
55 -43 1
56 -43 1
57 -26 -6
58 -26 -6
59 1 27
60 1 27
61 1 27
62 20 6
63 20 6
64 20 6
65 20 6
66 0 42
67 0 42
68 0 42
69 0 42
70 0 42
71 -14 12
72 -14 12
73 -14 12
74 -14 12
75 -14 12
76 33 36
77 33 36
78 33 36
79 33 36
80 33 36
81 33 36
82 -11 -28
83 -11 -28
84 -11 -28
85 -11 -28
86 -11 -28
87 -11 -28
88 -11 -28
89 -50 -43
90 -50 -43
91 -50 -43
92 -50 -43
93 -50 -43
94 -35 -17
95 -35 -17
96 -35 -17
97 -35 -17
98 19 -24
99 19 -24
100 19 -24
101 19 -24
102 19 -24
103 19 -24
104 19 -24
105 -48 28
106 -48 28
107 -48 28
108 14 -36
109 14 -36
110 14 -36
111 14 -36
112 14 -36
113 14 -36
114 14 -36
115 -36 -32
116 -36 -32
117 -36 -32
118 -36 -32
119 -36 -32
120 7 36
121 7 36
122 7 36
123 7 36
124 7 36
125 7 36
126 7 36
127 -29 7
128 -29 7
129 -29 7
130 -29 7
131 -29 7
132 22 31
133 22 31
134 22 31
135 22 31
136 47 -14
137 47 -14
138 47 -14
139 47 -14
140 -20 24
141 -20 24
142 -20 24
143 3 -41
144 3 -41
145 3 -41
146 3 -41
147 3 -41
148 2 -5
149 2 -5
150 2 -5
151 2 -5
152 -39 30
153 -39 30
154 -39 30
155 -39 30
156 -39 30
157 -39 30
158 -39 30
159 10 -26
160 10 -26
161 10 -26
162 -16 -33
163 -16 -33
164 -16 -33
165 -16 -33
166 -16 -33
167 -16 -33
168 -16 -33
169 33 33
170 33 33
171 33 33
172 33 33
173 33 33
174 33 33
175 21 41
176 21 41
177 21 41
178 -24 24
179 -24 24
180 -24 24
181 -24 24
182 -24 24
183 -24 24
184 -47 -32
185 -47 -32
186 -47 -32
187 -47 -32
188 -47 -32
189 -12 12
190 -12 12
191 43 -25
192 43 -25
193 43 -25
194 43 -25
195 -39 -13
196 -39 -13
197 -39 -13
198 -39 -13
199 -39 -13
200 -14 -37
201 -14 -37
202 -14 -37
203 -14 -37
204 -14 -37
205 -45 29
206 -45 29
207 -45 29
208 -45 29
209 -45 29
210 -26 45
211 -26 45
212 -26 45
213 -26 45
214 11 2
215 11 2
216 11 2
217 11 2
218 -47 4
219 -47 4
220 -47 4
221 -15 -10
222 -15 -10
223 -15 -10
224 -15 -10
225 -15 -10
226 -15 -10
227 34 14
228 34 14
229 34 14
DEMAND_SECTION
1 0
2 32
3 16
4 8
5 2
6 2
7 2
8 32
9 16
10 8
11 2
12 2
13 16
14 8
15 2
16 2
17 32
18 16
19 8
20 2
21 2
22 2
23 32
24 16
25 2
26 1
27 32
28 16
29 8
30 2
31 1
32 32
33 16
34 2
35 1
36 16
37 8
38 32
39 32
40 8
41 2
42 2
43 32
44 2
45 2
46 1
47 16
48 8
49 2
50 2
51 16
52 8
53 2
54 32
55 32
56 16
57 32
58 16
59 16
60 2
61 2
62 32
63 32
64 2
65 2
66 32
67 32
68 8
69 2
70 2
71 32
72 16
73 2
74 2
75 2
76 32
77 16
78 8
79 2
80 2
81 1
82 32
83 32
84 8
85 2
86 2
87 2
88 1
89 32
90 16
91 2
92 2
93 1
94 32
95 16
96 2
97 2
98 32
99 16
100 8
101 2
102 2
103 2
104 1
105 32
106 8
107 2
108 32
109 32
110 8
111 2
112 2
113 2
114 1
115 32
116 32
117 8
118 2
119 1
120 32
121 32
122 8
123 2
124 2
125 2
126 1
127 16
128 8
129 2
130 2
131 1
132 16
133 2
134 2
135 2
136 32
137 16
138 8
139 2
140 32
141 32
142 8
143 32
144 32
145 8
146 2
147 2
148 32
149 16
150 8
151 1
152 32
153 16
154 8
155 2
156 2
157 2
158 1
159 32
160 2
161 2
162 32
163 16
164 8
165 2
166 2
167 2
168 1
169 32
170 32
171 2
172 2
173 2
174 1
175 32
176 32
177 2
178 32
179 16
180 8
181 2
182 2
183 2
184 32
185 16
186 2
187 2
188 2
189 32
190 2
191 16
192 8
193 2
194 2
195 32
196 32
197 8
198 2
199 2
200 32
201 8
202 2
203 2
204 1
205 32
206 16
207 8
208 2
209 1
210 32
211 16
212 8
213 2
214 16
215 2
216 2
217 1
218 16
219 8
220 2
221 32
222 32
223 8
224 2
225 2
226 2
227 32
228 2
229 2
DEPOT_SECTION
1
-1
EOF