SDVRP instances/custom_instances/p01_8_split0.sol
228 -3 4 160 158 159 107 109 110 113 112 111 108 26 30 -6 2 1 5 202 201 200 199 203 164 161 163 166 165 162 167 -13 96 93 184 186 183 185 114 115 117 -15 12 14 194 196 197 195 198 53 54 -19 16 141 140 139 181 177 180 178 189 -20 18 17 174 176 175 22 23 25 24 131 -21 119 121 125 123 120 124 122 67 68 69 66 65 -31 33 32 34 27 28 29 97 100 103 98 99 102 101 150 148 -35 132 133 134 78 79 75 76 80 77 169 170 168 173 171 172 -36 60 59 58 210 209 212 211 43 44 42 45 152 129 126 128 -49 46 48 47 191 193 190 192 136 135 137 138 227 226 228 -57 56 55 219 217 218 9 8 10 7 11 130 127 -73 182 179 151 157 154 153 156 155 207 208 205 204 206 105 106 104 -87 86 82 81 85 83 84 142 145 144 146 143 -94 95 187 90 88 89 91 92 39 40 41 38 37 118 116 223 -149 147 51 52 50 61 64 62 63 214 216 213 215 -188 70 74 72 71 225 222 221 220 224 0 





OBJ=
1690.187
BEST_KNOWN=
0.000